(set-option :sat.prob_search true)
(set-option :sat.xor.solver true)
(set-option :parallel.enable true)
(declare-fun x0 () bool)
(declare-fun x3 () bool)
(declare-fun x4 () bool)
(declare-fun x6 () bool)
(declare-fun x8 () bool)
(declare-fun x9 () bool)
(assert (not (and  (or x9 x8) (or x9 x3 x8))))
(assert (or (not x6) (not (or x0 x4))))
(check-sat)